Al1 As1                                 
  0.943538796063307     
     0.0000000000000000    2.8667090000000002    2.8667090000000002
     2.8667090000000002    0.0000000000000000    2.8667090000000002
     2.8667090000000002    2.8667090000000002    0.0000000000000000
   Al   As
     1     1
Direct
  0.0000000000000000  0.0000000000000000  0.0000000000000000
  0.7500000000000000  0.7500000000000000  0.7500000000000000
 
             NaN             NaN             NaN
             NaN             NaN             NaN
