Al1 As1
0.9435387960633067
0.000000 2.866709 2.866709
2.866709 0.000000 2.866709
2.866709 2.866709 0.000000
Al As
1 1
direct
0.000000 0.000000 0.000000 Al
0.750000 0.750000 0.750000 As