Fe1
1.0
  -1.3925885543251146    1.3925885543251149    1.3925885543251149
   1.3925885543251146   -1.3925885543251149    1.3925885543251149
   1.3925885543251149    1.3925885543251149   -1.3925885543251146
Fe
1
direct
   0.0000000000000000    0.0000000000000000    0.0000000000000000 Fe
