Na1 Cl1                                 
    1.000000000000000     
     0.0000000000000005    2.8763779078147018    2.8763779078147018
     2.8763779078147018    0.0000000000000000    2.8763779078147018
     2.8763779078147023    2.8763779078147018    0.0000000000000004
  Na              Cl            
     1     1
Direct
  0.5000000000000000  0.5000000000000000  0.5000000000000000
  0.0000000000000000  0.0000000000000000  0.0000000000000000
 
             NaN             NaN             NaN
             NaN             NaN             NaN
