Hf1 Sb1 Pt1
   1.00000000000000
     0.0000000000000000    3.1782843254400301    3.1782843254400301
     3.1782843254400301    0.0000000000000000    3.1782843254400301
     3.1782843254400301    3.1782843254400301    0.0000000000000000
   Hf   Pt   Sb
     1     1     1
Direct
  0.2500000000000000  0.2500000000000000  0.2500000000000000
  0.0000000000000000  0.0000000000000000  0.0000000000000000
  0.7500000000000000  0.7500000000000000  0.7500000000000000

  0.00000000E+00  0.00000000E+00  0.00000000E+00
  0.00000000E+00  0.00000000E+00  0.00000000E+00
  0.00000000E+00  0.00000000E+00  0.00000000E+00
