Fe1
1.0
  -1.4486312589265344    1.4486312589265347    1.4486312589265347
   1.4486312589265344   -1.4486312589265347    1.4486312589265347
   1.4486312589265347    1.4486312589265347   -1.4486312589265344
Fe
1
direct
   0.0000000000000000    0.0000000000000000    0.0000000000000000 Fe
