Al1 Sb1
1.0384988203702208
0.000000 3.116817 3.116817
3.116817 0.000000 3.116817
3.116817 3.116817 0.000000
Al Sb
1 1
direct
0.250000 0.250000 0.250000 Al
0.000000 0.000000 0.000000 Sb