Al1 Sb1                                 
   1.00000000000000     
     0.0000000000000000    3.1168170000000002    3.1168170000000002
     3.1168170000000002    0.0000000000000000    3.1168170000000002
     3.1168170000000002    3.1168170000000002    0.0000000000000000
   Al   Sb
     1     1
Direct
  0.7500000000000000  0.7500000000000000  0.7500000000000000
  0.0000000000000000  0.0000000000000000  0.0000000000000000
 
  0.00000000E+00  0.00000000E+00  0.00000000E+00
  0.00000000E+00  0.00000000E+00  0.00000000E+00
