Al1 Sb1
1.0
0.000000 3.116817 3.116817
3.116817 0.000000 3.116817
3.116817 3.116817 0.000000
Al Sb
1 1
direct
0.750000 0.750000 0.750000 Al
0.000000 0.000000 0.000000 Sb
