Fe1
1.0
  -1.4090999999999996    1.4090999999999998    1.4090999999999998
   1.4090999999999996   -1.4090999999999998    1.4090999999999998
   1.4091000000000000    1.4090999999999998   -1.4090999999999996
Fe
1
direct
   0.0000000000000000    0.0000000000000000    0.0000000000000000 Fe
