Ti1
1.0
  -1.6421358528083931    1.6421358528083931    1.6421358528083931
   1.6421358528083931   -1.6421358528083931    1.6421358528083931
   1.6421358528083934    1.6421358528083931   -1.6421358528083931
Ti
1
direct
   0.0000000000000000    0.0000000000000000    0.0000000000000000 Ti
