Al1 As1                                 
   1.00000000000000     
    -0.0000000000000000    2.8667094158673163    2.8667094158673163
     2.8667094158673163   -0.0000000000000000    2.8667094158673163
     2.8667094158673163    2.8667094158673163   -0.0000000000000000
   Al   As
     1     1
Direct
 -0.0000000000000000  0.0000000000000000  0.0000000000000000
  0.2500000000000000  0.2500000000000000  0.2500000000000000
 
  0.00000000E+00  0.00000000E+00  0.00000000E+00
  0.00000000E+00  0.00000000E+00  0.00000000E+00
