Fe1                                     
    1.000000000000000     
    -1.3778510613891064    1.3778510613891068    1.3778510613891068
     1.3778510613891064   -1.3778510613891068    1.3778510613891068
     1.3778510613891068    1.3778510613891068   -1.3778510613891064
  Fe            
     1
Direct
  0.0000000000000000  0.0000000000000000  0.0000000000000000
 
             NaN             NaN             NaN
