Fe1
1.0
  -1.3778510613891064    1.3778510613891068    1.3778510613891068
   1.3778510613891064   -1.3778510613891068    1.3778510613891068
   1.3778510613891068    1.3778510613891068   -1.3778510613891064
Fe
1
direct
   0.0000000000000000    0.0000000000000000    0.0000000000000000 Fe
