Ti1                                     
    1.000000000000000     
    -1.6421358528083931    1.6421358528083931    1.6421358528083931
     1.6421358528083931   -1.6421358528083931    1.6421358528083931
     1.6421358528083934    1.6421358528083931   -1.6421358528083931
  Ti            
     1
Direct
  0.0000000000000000  0.0000000000000000  0.0000000000000000
 
             NaN             NaN             NaN
