Ti1                                     
    1.000000000000000     
    -1.6500689993841171    1.6500689993841171    1.6500689993841171
     1.6500689993841171   -1.6500689993841171    1.6500689993841171
     1.6500689993841173    1.6500689993841171   -1.6500689993841171
  Ti            
     1
Direct
  0.0000000000000000  0.0000000000000000  0.0000000000000000
 
             NaN             NaN             NaN
