Ti1
1.0
  -1.6178642745877290    1.6178642745877290    1.6178642745877290
   1.6178642745877290   -1.6178642745877290    1.6178642745877290
   1.6178642745877292    1.6178642745877290   -1.6178642745877290
Ti
1
direct
   0.0000000000000000    0.0000000000000000    0.0000000000000000 Ti
