Ti1                                     
    1.000000000000000     
    -1.6657103963325302    1.6657103963325302    1.6657103963325302
     1.6657103963325302   -1.6657103963325302    1.6657103963325302
     1.6657103963325304    1.6657103963325302   -1.6657103963325302
  Ti            
     1
Direct
  0.0000000000000000  0.0000000000000000  0.0000000000000000
 
             NaN             NaN             NaN
