Ti1
1.0
  -1.6657103963325302    1.6657103963325302    1.6657103963325302
   1.6657103963325302   -1.6657103963325302    1.6657103963325302
   1.6657103963325304    1.6657103963325302   -1.6657103963325302
Ti
1
direct
   0.0000000000000000    0.0000000000000000    0.0000000000000000 Ti
