Na1 Cl1                                 
    1.014780461630687     
     0.0000000000000000    2.8488708599999999    2.8488708599999999
     2.8488708599999999    0.0000000000000000    2.8488708599999999
     2.8488708599999999    2.8488708599999999    0.0000000000000000
   Na   Cl
     1     1
Direct
  0.5000000000000000  0.5000000000000000  0.5000000000000000
  0.0000000000000000  0.0000000000000000  0.0000000000000000
 
             NaN             NaN             NaN
             NaN             NaN             NaN
