Fe1
1.0
  -1.3852590051655509    1.3852590051655511    1.3852590051655511
   1.3852590051655509   -1.3852590051655511    1.3852590051655511
   1.3852590051655511    1.3852590051655511   -1.3852590051655509
Fe
1
direct
   0.0000000000000000    0.0000000000000000    0.0000000000000000 Fe
