kpoints generated from kspacing=0.125
0
Gamma
18 18 18
