Ni1 O1
1.0
   0.0000000000000003    2.0839919999999998    2.0839919999999998
   2.0839919999999998    0.0000000000000000    2.0839919999999998
   2.0839920000000003    2.0839919999999998    0.0000000000000003
Ni O
1 1
direct
   0.0000000000000000    0.0000000000000000    0.0000000000000000 Ni
   0.5000000000000001    0.5000000000000001    0.5000000000000000 O
