Al1 Sb1
0.972588826218856
0.000000 3.115977 3.115977
3.115977 0.000000 3.115977
3.115977 3.115977 0.000000
Al Sb
1 1
direct
0.250000 0.250000 0.250000 Al
0.000000 0.000000 0.000000 Sb