Ti1
1.0
  -1.6149839992749695    1.6149839992749697    1.6149839992749697
   1.6149839992749695   -1.6149839992749697    1.6149839992749697
   1.6149839992749699    1.6149839992749697   -1.6149839992749695
Ti
1
direct
   0.0000000000000000    0.0000000000000000    0.0000000000000000 Ti
