Fe1                                     
    1.000000000000000     
    -1.4486312589265344    1.4486312589265347    1.4486312589265347
     1.4486312589265344   -1.4486312589265347    1.4486312589265347
     1.4486312589265347    1.4486312589265347   -1.4486312589265344
  Fe            
     1
Direct
  0.0000000000000000  0.0000000000000000  0.0000000000000000
 
             NaN             NaN             NaN
