#= General Settings =#
PREC = {prec}
ISTART = 0
ISPIN = {ispin}
KSPACING = {kspacing}
KGAMMA = .TRUE.
ADDGRID = .TRUE.
SYMPREC = {symprec}

#= Ionic Relaxation Settings =#
NSW = {nsw}
IBRION = {ibrion}
ISIF = {isif}
LREAL = {lreal}
POTIM = {potim}
EDIFFG = {ediffg}
IOPT = {iopt}

#= Electronic Relxation Settings =#
NELM = {nelm}
NBANDS = {nbands}
ENCUT = {encut}
NELMIN = 5
EDIFF = {ediff}
ALGO = {algo}
LASPH = .TRUE.

#= DFT+U =#

#= Write flags =#
LCHARG = .FALSE.
LWAVE = .FALSE.
LVTOT = .FALSE.

#= DOS =#
ISMEAR = {ismear}
SIGMA = {sigma}

#= Parallelization =#
NCORE = {ncore}
KPAR = {kpar}
GGA = {gga}
