Ti1                                     
    1.000000000000000     
    -1.6341253066258437    1.6341253066258437    1.6341253066258437
     1.6341253066258437   -1.6341253066258437    1.6341253066258437
     1.6341253066258441    1.6341253066258437   -1.6341253066258437
  Ti            
     1
Direct
  0.0000000000000000  0.0000000000000000  0.0000000000000000
 
             NaN             NaN             NaN
