Ti1
1.0
  -1.6341253066258437    1.6341253066258437    1.6341253066258437
   1.6341253066258437   -1.6341253066258437    1.6341253066258437
   1.6341253066258441    1.6341253066258437   -1.6341253066258437
Ti
1
direct
   0.0000000000000000    0.0000000000000000    0.0000000000000000 Ti
