Fe1
1.0
  -1.4350282841221278    1.4350282841221282    1.4350282841221282
   1.4350282841221278   -1.4350282841221282    1.4350282841221282
   1.4350282841221282    1.4350282841221282   -1.4350282841221278
Fe
1
direct
   0.0000000000000000    0.0000000000000000    0.0000000000000000 Fe
