U1 Bi1 Pt1
0.9435387960633067
0.000000 3.317641 3.317641
3.317641 0.000000 3.317641
3.317641 3.317641 0.000000
U Bi Pt
1 1 1
direct
0.250000 0.250000 0.250000 U
0.750000 0.750000 0.750000 Bi
0.000000 0.000000 0.000000 Pt
