#= General Settings =#
PREC = ACC
ISTART = 0
ISPIN = 1
ADDGRID = .TRUE.

#= Ionic Relaxation Settings =#
NSW = 0
IBRION = -1
ISIF = 3
LREAL = .FALSE.

#= Electronic Relxation Settings =#
ENCUT = 700
NELMIN = 5
EDIFF = 1e-07
ALGO = Normal

#= Write flags =#
LCHARG = .FALSE.
LWAVE = .FALSE.
LVTOT = .FALSE.

#= DOS =#
ISMEAR = 0
SIGMA = 0.01

#= Parallelization =#
NPAR = 4
KPAR = 4
GGA = PS
