Th1 Bi1 Pt1
1.0
0.000000 3.424859 3.424859
3.424859 0.000000 3.424859
3.424859 3.424859 0.000000
Th Bi Pt
1 1 1
direct
0.250000 0.250000 0.250000 Th
0.750000 0.750000 0.750000 Bi
0.000000 0.000000 0.000000 Pt
