#= General Settings =#
PREC = ACC
ISTART = 0
ISPIN = 1
KSPACING = 0.125
NFREE = 4
KGAMMA = .TRUE.
ADDGRID = .TRUE.
SYMPREC = 1.000E-05

#= Ionic Relaxation Settings =#
NSW = 60
IBRION = 6
ISIF = 3
LREAL = .FALSE.
POTIM = 5.000E-03
EDIFFG = -1.000E-02
IOPT = 0

#= Electronic Relxation Settings =#
NELM = 60
NBANDS = 42
ENCUT = 700
NELMIN = 5
EDIFF = 1.000E-07
ALGO = Normal
LASPH = .TRUE.
AMIX = 0.4
BMIX = 1.0

#= DFT+U =#

#= Write flags =#
LCHARG = .FALSE.
LWAVE = .FALSE.
LVTOT = .FALSE.

#= DOS =#
ISMEAR = 0
SIGMA = 0.05

#= Parallelization =#
NCORE = 1
KPAR = 4
GGA = PE
