kpoints generated from kspacing=0.125
0
Gamma
9 9 9
