B1 As1
0.972588826218856
0.000000 2.408327 2.408327
2.408327 0.000000 2.408327
2.408327 2.408327 0.000000
B As
1 1
direct
0.750000 0.750000 0.750000 B
0.000000 0.000000 0.000000 As