Ti1                                     
    1.000000000000000     
    -1.5843237010185482    1.5843237010185482    1.5843237010185482
     1.5843237010185482   -1.5843237010185482    1.5843237010185482
     1.5843237010185487    1.5843237010185482   -1.5843237010185482
  Ti            
     1
Direct
  0.0000000000000000  0.0000000000000000  0.0000000000000000
 
             NaN             NaN             NaN
