Fe1
1.0
  -1.4418618552019091    1.4418618552019093    1.4418618552019093
   1.4418618552019091   -1.4418618552019093    1.4418618552019093
   1.4418618552019093    1.4418618552019093   -1.4418618552019091
Fe
1
direct
   0.0000000000000000    0.0000000000000000    0.0000000000000000 Fe
