Ti1
1.0
  -1.6012696250058418    1.6012696250058418    1.6012696250058418
   1.6012696250058418   -1.6012696250058418    1.6012696250058418
   1.6012696250058420    1.6012696250058418   -1.6012696250058418
Ti
1
direct
   0.0000000000000000    0.0000000000000000    0.0000000000000000 Ti
