Al1 As1
0.9283177667225558
0.000000 2.866140 2.866140
2.866140 0.000000 2.866140
2.866140 2.866140 0.000000
Al As
1 1
direct
0.000000 0.000000 0.000000 Al
0.750000 0.750000 0.750000 As