Cu1 O1
1.0
   0.00000000    2.11077586    2.11077586
   2.11077586    0.00000000    2.11077586
   2.11077586    2.11077586    0.00000000
Cu O
1 1
direct
   0.00000000    0.00000000    0.00000000 Cu
   0.50473759    0.49526241    0.49526241 O
