U1 Bi1 Pt1
   1.00000000000000
     0.0000000000000000    3.3176405974258381    3.3176405974258381
     3.3176405974258381    0.0000000000000000    3.3176405974258381
     3.3176405974258381    3.3176405974258381    0.0000000000000000
   Bi   Pt   U
     1     1     1
Direct
  0.2500000000000000  0.2500000000000000  0.2500000000000000
  0.0000000000000000  0.0000000000000000  0.0000000000000000
  0.7500000000000000  0.7500000000000000  0.7500000000000000

  0.00000000E+00  0.00000000E+00  0.00000000E+00
  0.00000000E+00  0.00000000E+00  0.00000000E+00
  0.00000000E+00  0.00000000E+00  0.00000000E+00
