Fe1
1.0
  -1.4211624093799111    1.4211624093799113    1.4211624093799113
   1.4211624093799111   -1.4211624093799113    1.4211624093799113
   1.4211624093799113    1.4211624093799113   -1.4211624093799111
Fe
1
direct
   0.0000000000000000    0.0000000000000000    0.0000000000000000 Fe
