Cu1 O1                                  
    1.000000000000000     
     0.0000000000000000    2.1107758599999999    2.1107758599999999
     2.1107758599999999    0.0000000000000000    2.1107758599999999
     2.1107758599999999    2.1107758599999999    0.0000000000000000
   Cu   O 
     1     1
Direct
  0.0000000000000000  0.0000000000000000  0.0000000000000000
  0.5047375944502227  0.4952624055497772  0.4952624055497772
 
  0.00000000E+00  0.00000000E+00  0.00000000E+00
  0.00000000E+00  0.00000000E+00  0.00000000E+00
