Fe1                                     
    1.000000000000000     
    -1.4168281410417329    1.4168281410417332    1.4168281410417332
     1.4168281410417329   -1.4168281410417332    1.4168281410417332
     1.4168281410417334    1.4168281410417332   -1.4168281410417329
  Fe            
     1
Direct
  1.0000000000000000  0.0000000000000000  0.0000000000000000
 
  0.00000000E+00  0.00000000E+00  0.00000000E+00
