Fe1                                     
    1.000000000000000     
    -1.4418618552019091    1.4418618552019093    1.4418618552019093
     1.4418618552019091   -1.4418618552019093    1.4418618552019093
     1.4418618552019093    1.4418618552019093   -1.4418618552019091
  Fe            
     1
Direct
  0.0000000000000000  0.0000000000000000  0.0000000000000000
 
             NaN             NaN             NaN
