Cu1 O1                                  
    1.000000000000000     
     0.0000000000000000    2.1184869660334158    2.1184869660334158
     2.1184869660334158    0.0000000000000000    2.1184869660334158
     2.1184869660334158    2.1184869660334158   -0.0000000000000000
   Cu   O 
     1     1
Direct
 -0.0000000000000000 -0.0000000000000000  0.0000000000000000
  0.5000000000000000  0.5000000000000000  0.5000000000000000
 
  0.00000000E+00  0.00000000E+00  0.00000000E+00
  0.00000000E+00  0.00000000E+00  0.00000000E+00
