Th1 Bi1 Pt1
1.0
0.000000 3.469482 3.469482
3.469482 0.000000 3.469482
3.469482 3.469482 0.000000
Bi Pt Th
1 1 1
direct
0.250000 0.250000 0.250000 Bi
0.000000 0.000000 0.000000 Pt
0.750000 0.750000 0.750000 Th
