Ti1
1.0
  -1.6579265893135957    1.6579265893135957    1.6579265893135957
   1.6579265893135957   -1.6579265893135957    1.6579265893135957
   1.6579265893135962    1.6579265893135957   -1.6579265893135957
Ti
1
direct
   0.0000000000000000    0.0000000000000000    0.0000000000000000 Ti
