Na1 Cl1                                 
    1.000000000000000     
    -0.0000000000000000    2.8488708583296529    2.8488708583296529
     2.8488708583296529   -0.0000000000000000    2.8488708583296529
     2.8488708583296529    2.8488708583296529    0.0000000000000000
   Na   Cl
     1     1
Direct
  0.5000000000000000  0.5000000000000000  0.5000000000000000
 -0.0000000000000000  0.0000000000000000 -0.0000000000000000
 
  0.00000000E+00  0.00000000E+00  0.00000000E+00
  0.00000000E+00  0.00000000E+00  0.00000000E+00
