kpoints generated from kspacing=0.125
0
Gamma
12 12 12
