B1 As1
0.9283177667225558
0.000000 2.408819 2.408819
2.408819 0.000000 2.408819
2.408819 2.408819 0.000000
B As
1 1
direct
0.750000 0.750000 0.750000 B
0.000000 0.000000 0.000000 As