Hf1 Sb1 Pt1
  0.965489384605630
     0.0000000000000000    3.1782840000000001    3.1782840000000001
     3.1782840000000001    0.0000000000000000    3.1782840000000001
     3.1782840000000001    3.1782840000000001    0.0000000000000000
   Hf   Sb   Pt
     1     1     1
Direct
  0.7500000000000000  0.7500000000000000  0.7500000000000000
  0.2500000000000000  0.2500000000000000  0.2500000000000000
  0.0000000000000000  0.0000000000000000  0.0000000000000000

  0.00000000E+00  0.00000000E+00  0.00000000E+00
  0.00000000E+00  0.00000000E+00  0.00000000E+00
  0.00000000E+00  0.00000000E+00  0.00000000E+00
