Fe1
1.0
  -1.4168281410417327    1.4168281410417329    1.4168281410417329
   1.4168281410417327   -1.4168281410417329    1.4168281410417329
   1.4168281410417332    1.4168281410417329   -1.4168281410417327
Fe
1
direct
   0.0000000000000000    0.0000000000000000    0.0000000000000000 Fe
