#= General Settings =#
PREC = ACC
ISTART = 0
ISPIN = 1

ADDGRID = .TRUE.
KSPACING = 0.1

#= Ionic Relaxation Settings =#
NSW = 0
IBRION = -1
ISIF = 3
LREAL = .FALSE
POTIM = 0
EDIFFG = 0

#= Electronic Relxation Settings =#
ENCUT = 520
NELMIN = 5
EDIFF = 1e-06
ALGO = FAST

#= Write flags =#
LCHARG = .FALSE.
LWAVE = .FALSE.
LVTOT = .FALSE.

#= DOS =#
ISMEAR = -5
SIGMA = 0

#= Parallelization =#
NCORE = 12
KPAR = 4
GGA = PE
