Fe1                                     
    1.000000000000000     
    -1.4141268366717754    1.4141268366717756    1.4141268366717756
     1.4141268366717754   -1.4141268366717756    1.4141268366717756
     1.4141268366717759    1.4141268366717756   -1.4141268366717754
  Fe            
     1
Direct
  0.0000000000000000  0.0000000000000000  0.0000000000000000
 
             NaN             NaN             NaN
