Cu1 O1                                  
    1.004975206272652     
     0.0000000000000000    2.1107758599999999    2.1107758599999999
     2.1107758599999999    0.0000000000000000    2.1107758599999999
     2.1107758599999999    2.1107758599999999    0.0000000000000000
   Cu   O 
     1     1
Direct
  0.0000000000000000  0.0000000000000000  0.0000000000000000
  0.5000000000000000  0.5000000000000000  0.5000000000000000
 
             NaN             NaN             NaN
             NaN             NaN             NaN
