kpoints generated from kspacing=0.125
0
Gamma
16 16 16
