Th1 Bi1 Pt1
   1.00000000000000
     0.0000000000000000    3.4241756731891502    3.4241756731891502
     3.4241756731891502    0.0000000000000000    3.4241756731891502
     3.4241756731891502    3.4241756731891502    0.0000000000000000
   Bi   Pt   Th
     1     1     1
Direct
  0.2500000000000000  0.2500000000000000  0.2500000000000000
  0.0000000000000000  0.0000000000000000  0.0000000000000000
  0.7500000000000000  0.7500000000000000  0.7500000000000000

  0.00000000E+00  0.00000000E+00  0.00000000E+00
  0.00000000E+00  0.00000000E+00  0.00000000E+00
  0.00000000E+00  0.00000000E+00  0.00000000E+00
