Fe1
1.0
  -1.4141268366717752    1.4141268366717754    1.4141268366717754
   1.4141268366717752   -1.4141268366717754    1.4141268366717754
   1.4141268366717754    1.4141268366717754   -1.4141268366717752
Fe
1
direct
   0.0000000000000000    0.0000000000000000    0.0000000000000000 Fe
