B1 As1                                  
  0.928317766722556     
     0.0000000000000000    2.4083269999999999    2.4083269999999999
     2.4083269999999999    0.0000000000000000    2.4083269999999999
     2.4083269999999999    2.4083269999999999    0.0000000000000000
   B    As
     1     1
Direct
  0.7500000000000000  0.7500000000000000  0.7500000000000000
  0.0000000000000000  0.0000000000000000  0.0000000000000000
 
             NaN             NaN             NaN
             NaN             NaN             NaN
