Ni1 O1
1.0
   0.0000000000000003    2.0970178330815874    2.0970178330815874
   2.0970178330815874    0.0000000000000000    2.0970178330815874
   2.0970178330815878    2.0970178330815874    0.0000000000000003
Ni O
1 1
direct
   0.0000000000000000    0.0000000000000000    0.0000000000000000 Ni
   0.4999999999999999    0.4999999999999999    0.4999999999999998 O
