Fe1                                     
    1.000000000000000     
    -1.4211624093799111    1.4211624093799113    1.4211624093799113
     1.4211624093799111   -1.4211624093799113    1.4211624093799113
     1.4211624093799113    1.4211624093799113   -1.4211624093799111
  Fe            
     1
Direct
  0.0000000000000000  0.0000000000000000  0.0000000000000000
 
             NaN             NaN             NaN
