Hf1 Sb1 Pt1
1.0
0.000000 3.215460 3.215460
3.215460 0.000000 3.215460
3.215460 3.215460 0.000000
Hf Pt Sb
1 1 1
direct
0.250000 0.250000 0.250000 Hf
0.000000 0.000000 0.000000 Pt
0.750000 0.750000 0.750000 Sb
