Fe1                                     
    1.000000000000000     
    -1.3998417505439416    1.3998417505439418    1.3998417505439418
     1.3998417505439416   -1.3998417505439418    1.3998417505439418
     1.3998417505439418    1.3998417505439418   -1.3998417505439416
  Fe            
     1
Direct
  0.0000000000000000  0.0000000000000000  0.0000000000000000
 
             NaN             NaN             NaN
