Na1 Cl1                                 
    1.000000000000000     
     0.0000000000000005    2.8338636229811307    2.8338636229811311
     2.8338636229811307    0.0000000000000000    2.8338636229811311
     2.8338636229811311    2.8338636229811307    0.0000000000000003
  Na              Cl            
     1     1
Direct
  0.5000000000000000  0.5000000000000000  0.5000000000000000
  0.0000000000000000  0.0000000000000000  0.0000000000000000
 
             NaN             NaN             NaN
             NaN             NaN             NaN
