Cu1 O1
1.0
   0.0000000000000003    2.0910319973440092    2.0910319973440092
   2.0910319973440092    0.0000000000000000    2.0910319973440092
   2.0910319973440097    2.0910319973440092    0.0000000000000003
Cu O
1 1
direct
   0.0000000000000000    0.0000000000000000    0.0000000000000000 Cu
   0.5000000000000000    0.4999999999999999    0.5000000000000002 O
