B1 As1
1.0
  -0.0000000000000001    2.4083270028077028    2.4083270028077028
   2.4083270028077028    0.0000000000000000    2.4083270028077028
   2.4083270028077028    2.4083270028077028    0.0000000000000003
B As
1 1
direct
   0.2499999999999998    0.2499999999999999    0.2500000000000002 B
   0.0000000000000000    0.0000000000000000    0.0000000000000000 As
