Th1 Bi1 Pt1
   1.04464392682232
     0.0000000000000000    3.4248590000000001    3.4248590000000001
     3.4248590000000001    0.0000000000000000    3.4248590000000001
     3.4248590000000001    3.4248590000000001    0.0000000000000000
   Th   Bi   Pt
     1     1     1
Direct
  0.2500000000000000  0.2500000000000000  0.2500000000000000
  0.7500000000000000  0.7500000000000000  0.7500000000000000
  0.0000000000000000  0.0000000000000000  0.0000000000000000

  0.00000000E+00  0.00000000E+00  0.00000000E+00
  0.00000000E+00  0.00000000E+00  0.00000000E+00
  0.00000000E+00  0.00000000E+00  0.00000000E+00
