Fe1
1.0
  -1.4281290031087281    1.4281290031087286    1.4281290031087286
   1.4281290031087281   -1.4281290031087286    1.4281290031087286
   1.4281290031087286    1.4281290031087286   -1.4281290031087281
Fe
1
direct
   0.0000000000000000    0.0000000000000000    0.0000000000000000 Fe
