Fe1                                     
    1.000000000000000     
    -1.4350282841221278    1.4350282841221282    1.4350282841221282
     1.4350282841221278   -1.4350282841221282    1.4350282841221282
     1.4350282841221282    1.4350282841221282   -1.4350282841221278
  Fe            
     1
Direct
  0.0000000000000000  0.0000000000000000  0.0000000000000000
 
             NaN             NaN             NaN
