Al1 As1
1.0
  -0.0000000000000002    2.8661400002404007    2.8661400002404007
   2.8661400002404007    0.0000000000000000    2.8661400002404007
   2.8661400002404007    2.8661400002404007    0.0000000000000004
Al As
1 1
direct
   0.0000000000000000    0.0000000000000000    0.0000000000000000 Al
   0.2500000000000002    0.2500000000000002    0.2499999999999998 As
