#= General Settings =#
PREC = ACC
ISTART = 0
ISPIN = 1

#= Ionic Relaxation Settings =#
NSW = 60
IBRION = 2
ISIF = 7
LREAL = .FALSE.
POTIM = 0.1

#= Electronic Relxation Settings =#
ENCUT = 520
NELMIN = 5
EDIFF = 1e-05
ALGO = Normal

#= Write flags =#
LCHARG = .FALSE.
LWAVE = .FALSE.
LVTOT = .FALSE.

#= DOS =#
ISMEAR = 0
SIGMA = 0.01

#= Parallelization =#
NPAR = 4
KPAR = 4
GGA = PS
