U1 Bi1 Pt1
1.0
0.000000 3.401480 3.401480
3.401480 0.000000 3.401480
3.401480 3.401480 0.000000
Bi Pt U
1 1 1
direct
0.250000 0.250000 0.250000 Bi
0.000000 0.000000 0.000000 Pt
0.750000 0.750000 0.750000 U
