Ti1                                     
    1.000000000000000     
    -1.5928417340844745    1.5928417340844745    1.5928417340844745
     1.5928417340844745   -1.5928417340844745    1.5928417340844745
     1.5928417340844747    1.5928417340844745   -1.5928417340844745
  Ti            
     1
Direct
  0.0000000000000000  0.0000000000000000  0.0000000000000000
 
             NaN             NaN             NaN
