Ni1 O1                                  
    1.000000000000000     
     0.0000000000000003    2.0970178330815874    2.0970178330815874
     2.0970178330815874    0.0000000000000000    2.0970178330815874
     2.0970178330815878    2.0970178330815874    0.0000000000000003
  Ni              O             
     1     1
Direct
  0.0000000000000000  0.0000000000000000  0.0000000000000000
  0.5000000000000000  0.5000000000000000  0.5000000000000000
 
  0.00000000E+00  0.00000000E+00  0.00000000E+00
  0.00000000E+00  0.00000000E+00  0.00000000E+00
