Fe1                                     
    1.000000000000000     
    -1.4070205517288545    1.4070205517288548    1.4070205517288548
     1.4070205517288545   -1.4070205517288548    1.4070205517288548
     1.4070205517288548    1.4070205517288548   -1.4070205517288545
  Fe            
     1
Direct
  0.0000000000000000  0.0000000000000000  0.0000000000000000
 
             NaN             NaN             NaN
