Fe1
1.0
  -1.4070205517288545    1.4070205517288548    1.4070205517288548
   1.4070205517288545   -1.4070205517288548    1.4070205517288548
   1.4070205517288548    1.4070205517288548   -1.4070205517288545
Fe
1
direct
   0.0000000000000000    0.0000000000000000    0.0000000000000000 Fe
