Ti1
1.0
  -1.5843237010185482    1.5843237010185482    1.5843237010185482
   1.5843237010185482   -1.5843237010185482    1.5843237010185482
   1.5843237010185487    1.5843237010185482   -1.5843237010185482
Ti
1
direct
   0.0000000000000000    0.0000000000000000    0.0000000000000000 Ti
