#= General Settings =#
PREC = ACC
ISTART = 0
ISPIN = 1
ADDGRID = .TRUE.
POTIM = 0.01
NFREE = 4
SYMPREC = 1e-08

#= Ionic Relaxation Settings =#
NSW = 60
IBRION = 6
ISIF = 3
LREAL = .FALSE.
EDIFFG = -0.01

#= Electronic Relxation Settings =#
ENCUT = 700
NELMIN = 5
EDIFF = 1e-07
ALGO = Normal

#= Write flags =#
LCHARG = .FALSE.
LWAVE = .FALSE.
LVTOT = .FALSE.

#= DOS =#
ISMEAR = 0
SIGMA = 0.01

#= Parallelization =#
KPAR = 8
GGA = PS
