Ti2                                     
    1.000000000000000     
     3.2520708897618342    0.0000000000000000    0.0000000000000002
     0.0000000000000005    3.2520708897618342    0.0000000000000002
     0.0000000000000000    0.0000000000000000    3.2520708897618342
  Ti            
     2
Direct
 -0.0030749637197276  0.0000000000000000  0.0000000000000000
  0.5000000000000000  0.5000000000000000  0.5000000000000000
 
  0.00000000E+00  0.00000000E+00  0.00000000E+00
  0.00000000E+00  0.00000000E+00  0.00000000E+00
