Ti2
1.0
   3.2520708897618342    0.0000000000000000    0.0000000000000002
   0.0000000000000005    3.2520708897618342    0.0000000000000002
   0.0000000000000000    0.0000000000000000    3.2520708897618342
Ti
2
direct
   0.0000000000000000    0.0000000000000000    0.0000000000000000 Ti
   0.5000000000000000    0.5000000000000000    0.5000000000000000 Ti
