Al1 Sb1
0.9435387960633067
0.000000 3.116817 3.116817
3.116817 0.000000 3.116817
3.116817 3.116817 0.000000
Al Sb
1 1
direct
0.250000 0.250000 0.250000 Al
0.000000 0.000000 0.000000 Sb