Hf1 Sb1 Pt1
1.0446439268223187
0.000000 3.178284 3.178284
3.178284 0.000000 3.178284
3.178284 3.178284 0.000000
Hf Sb Pt
1 1 1
direct
0.750000 0.750000 0.750000 Hf
0.250000 0.250000 0.250000 Sb
0.000000 0.000000 0.000000 Pt
