Ti1                                     
    1.000000000000000     
    -1.6096097214064211    1.6096097214064211    1.6096097214064211
     1.6096097214064211   -1.6096097214064211    1.6096097214064211
     1.6096097214064213    1.6096097214064211   -1.6096097214064211
  Ti            
     1
Direct
  0.0000000000000000  0.0000000000000000  0.0000000000000000
 
             NaN             NaN             NaN
