Ti1
1.0
  -1.6096097214064211    1.6096097214064211    1.6096097214064211
   1.6096097214064211   -1.6096097214064211    1.6096097214064211
   1.6096097214064213    1.6096097214064211   -1.6096097214064211
Ti
1
direct
   0.0000000000000000    0.0000000000000000    0.0000000000000000 Ti
