Al1 Sb1                                 
   1.05071757449858     
     0.0000000000000000    3.1159770000000000    3.1159770000000000
     3.1159770000000000    0.0000000000000000    3.1159770000000000
     3.1159770000000000    3.1159770000000000    0.0000000000000000
   Al   Sb
     1     1
Direct
  0.2500000000000000  0.2500000000000000  0.2500000000000000
  0.0000000000000000  0.0000000000000000  0.0000000000000000
 
             NaN             NaN             NaN
             NaN             NaN             NaN
