Ti1
1.0
  -1.6260354448809169    1.6260354448809171    1.6260354448809171
   1.6260354448809169   -1.6260354448809171    1.6260354448809171
   1.6260354448809173    1.6260354448809171   -1.6260354448809169
Ti
1
direct
   0.0000000000000000    0.0000000000000000    0.0000000000000000 Ti
