Al1 As1                                 
   1.00000000000000     
     0.0000000000000000    2.8667090000000002    2.8667090000000002
     2.8667090000000002    0.0000000000000000    2.8667090000000002
     2.8667090000000002    2.8667090000000002    0.0000000000000000
   Al   As
     1     1
Direct
  0.0000000000000000  0.0000000000000000  0.0000000000000000
  0.7534883205794518  0.7465116794205482  0.7465116794205482
 
  0.00000000E+00  0.00000000E+00  0.00000000E+00
  0.00000000E+00  0.00000000E+00  0.00000000E+00
