Ti1                                     
    1.000000000000000     
    -1.6275995598816893    1.6275995598816895    1.6275995598816895
     1.6275995598816893   -1.6275995598816895    1.6275995598816895
     1.6275995598816897    1.6275995598816895   -1.6275995598816893
  Ti            
     1
Direct
  0.0000000000000000  0.0000000000000000  0.0000000000000000
 
  0.00000000E+00  0.00000000E+00  0.00000000E+00
