U1 Bi1 Pt1
  0.993288388379269
     0.0000000000000000    3.3176410000000001    3.3176410000000001
     3.3176410000000001    0.0000000000000000    3.3176410000000001
     3.3176410000000001    3.3176410000000001    0.0000000000000000
   U    Bi   Pt
     1     1     1
Direct
  0.2500000000000000  0.2500000000000000  0.2500000000000000
  0.7500000000000000  0.7500000000000000  0.7500000000000000
  0.0000000000000000  0.0000000000000000  0.0000000000000000

  0.00000000E+00  0.00000000E+00  0.00000000E+00
  0.00000000E+00  0.00000000E+00  0.00000000E+00
  0.00000000E+00  0.00000000E+00  0.00000000E+00
