#= General Settings =#
PREC = ACC
ISTART = 0
ISPIN = 2
MAGMOM = 4*5.0 4*0.0
KSPACING = 0.125
NFREE = 4
KGAMMA = .TRUE.
ADDGRID = .TRUE.
SYMPREC = 1.000E-05

#= Ionic Relaxation Settings =#
NSW = 60
IBRION = 6
ISIF = 3
LREAL = .FALSE.
POTIM = 5.000E-03
EDIFFG = -1.000E-02
IOPT = 0

#= Electronic Relxation Settings =#
NELM = 60
NBANDS = 48
ENCUT = 700
NELMIN = 5
EDIFF = 1.000E-07
ALGO = Normal
LASPH = .TRUE.
AMIX = 0.4
BMIX = 1.0

#= DFT+U =#
LDAU = .TRUE.
LDAUPRINT = 1
LDAUU = 6.4 0.0
LDAUJ = 0.0 0.0
LDAUL = 2 -1
LMAXMIX = 4

#= Write flags =#
LCHARG = .FALSE.
LWAVE = .FALSE.
LVTOT = .FALSE.
LORBIT = 11

#= DOS =#
ISMEAR = 0
SIGMA = 0.05

#= Parallelization =#
NCORE = 1
KPAR = 4
GGA = PE
