Al1 As1                                 
   1.05071757449858     
     0.0000000000000000    2.8661400000000001    2.8661400000000001
     2.8661400000000001    0.0000000000000000    2.8661400000000001
     2.8661400000000001    2.8661400000000001    0.0000000000000000
   Al   As
     1     1
Direct
  0.0000000000000000  0.0000000000000000  0.0000000000000000
  0.7500000000000000  0.7500000000000000  0.7500000000000000
 
             NaN             NaN             NaN
             NaN             NaN             NaN
