Al1 Sb1
1.0
  -0.0000000000000002    3.1159769975656926    3.1159769975656926
   3.1159769975656926    0.0000000000000000    3.1159769975656926
   3.1159769975656926    3.1159769975656926    0.0000000000000004
Al Sb
1 1
direct
   0.7499999999999999    0.7500000000000000    0.7500000000000001 Al
   0.0000000000000000    0.0000000000000000    0.0000000000000000 Sb
