B1 As1                                  
   1.02598556800602     
     0.0000000000000000    2.4088189999999998    2.4088189999999998
     2.4088189999999998    0.0000000000000000    2.4088189999999998
     2.4088189999999998    2.4088189999999998    0.0000000000000000
   B    As
     1     1
Direct
  0.7500000000000000  0.7500000000000000  0.7500000000000000
  0.0000000000000000  0.0000000000000000  0.0000000000000000
 
             NaN             NaN             NaN
             NaN             NaN             NaN
