Ti1
1.0
  -1.6275995598816893    1.6275995598816895    1.6275995598816895
   1.6275995598816893   -1.6275995598816895    1.6275995598816895
   1.6275995598816897    1.6275995598816895   -1.6275995598816893
Ti
1
direct
   0.0000000000000000    0.0000000000000000    0.0000000000000000 Ti
