B1 As1                                  
   1.00000000000000     
     0.0000000000000000    2.4088192541506146    2.4088192541506146
     2.4088192541506146    0.0000000000000000    2.4088192541506146
     2.4088192541506146    2.4088192541506146   -0.0000000000000000
   B    As
     1     1
Direct
  0.2500000000000000  0.2500000000000000  0.2500000000000000
 -0.0000000000000000 -0.0000000000000000 -0.0000000000000000
 
  0.00000000E+00  0.00000000E+00  0.00000000E+00
  0.00000000E+00  0.00000000E+00  0.00000000E+00
