#= General Settings =#
PREC = ACC
ISTART = 0
ISPIN = 1

ADDGRID = .TRUE.
KSPACING = 0.1

#= Ionic Relaxation Settings =#
NSW = 60
IBRION = 3
ISIF = 3
LREAL = .FALSE
POTIM = 0.1
EDIFFG = -1e-02

#= Electronic Relxation Settings =#
ENCUT = 520
NELMIN = 5
EDIFF = 1e-06
ALGO = FAST

#= Write flags =#
LCHARG = .FALSE.
LWAVE = .FALSE.
LVTOT = .FALSE.

#= DOS =#
ISMEAR = 0
SIGMA = 0.1

#= Parallelization =#
NCORE = 12
KPAR = 4
GGA = PE
