B1 As1
1.0
0.000000 2.408327 2.408327
2.408327 0.000000 2.408327
2.408327 2.408327 0.000000
B As
1 1
direct
0.250000 0.250000 0.250000 B
0.000000 0.000000 0.000000 As
