Ti1
1.0
  -1.5928417340844745    1.5928417340844745    1.5928417340844745
   1.5928417340844745   -1.5928417340844745    1.5928417340844745
   1.5928417340844747    1.5928417340844745   -1.5928417340844745
Ti
1
direct
   0.0000000000000000    0.0000000000000000    0.0000000000000000 Ti
